
  12    4
  10   10   10   10

   0   0   0   0   0   5 2 3 4 5 11 
   3  10  10  10  10   3 10 8 7 
   9  10  10  10  10   3 9 8 7 
   7  10  10  10  10   2 8 6 
   8  10  10  10  10   2 8 6 
   2  10  10  10  10   1 7 
   4  10  10  10  10   1 12
   4  10  10  10  10   1 12
   3  10  10  10  10   1 12
   1  10  10  10  10   1 12
  10  10  10  10  10   1 12
   0   0   0   0   0   0 
